20	5
0	7	2	4	3	5	6	1	7
1	0
2	1	18
3	0
4	1	17
5	0
6	1	21
7	1	8
8	1	15
9	1	20
10	1	19
11	1	13
12	1	10
13	1	12
14	1	9
15	1	11
16	0
17	1	11
18	1	21
19	1	21
20	1	21
21	0
0	0	0	0	0	0	0
1	2	1	0	2	5	2
2	7	5	1	0	0	2
3	10	4	0	1	0	0
4	2	2	2	4	3	1
5	10	4	1	4	1	4
6	6	4	2	3	1	5
7	4	0	2	3	2	0
8	1	5	5	2	2	2
9	4	0	4	0	0	0
10	3	3	1	2	2	5
11	7	0	1	2	3	0
12	5	0	5	1	3	0
13	1	1	3	2	2	5
14	6	5	3	0	0	0
15	8	2	5	4	2	3
16	5	0	2	0	2	0
17	6	4	2	4	2	2
18	7	3	0	4	4	1
19	8	0	0	4	3	1
20	4	5	4	3	2	5
21	0	0	0	0	0	0
5	5	5	5	5
